35547 41515 
35901 41406 
36493 41305 
35757 41407 
34762 41569 
35668 41483 
36614 41273 
37652 41042 
36998 41184 
36325 41351 
37690 41011 
38191 40733 
38660 40563 
37417 41054 
36979 41209 
36446 41319 
38226 40694 
38416 40601 
39148 40111 
38844 40311 
38058 40850 
38444 40591 
37100 41177 
36744 41221 
39198 40089 
39485 39992 
39250 40038 
39226 40079 
39314 40022 
39261 40027 
39652 39820 
39567 39867 
38785 40379 
39774 39729 
40104 39395 
40428 39231 
40499 39117 
40144 39345 
38992 40241 
41036 38641 
40635 39093 
40706 38979 
40901 38704 
40311 39257 
40206 39294 
39835 39655 
39931 39597 
40830 38809 
40002 39483 
38876 40308 
41231 38357 
40096 39402 
40058 39412 
